
Gurobi 6.5.2 (linux64) logging started Mon Dec 12 22:09:08 2016


Gurobi 6.5.2 (linux64) logging started Mon Dec 12 22:09:08 2016

Optimize a model with 21 rows, 41 columns and 87 nonzeros
Coefficient statistics:
  Matrix range    [1e+00, 2e+00]
  Objective range [3e+00, 1e+02]
  Bounds range    [1e+00, 1e+00]
  RHS range       [1e+00, 1e+00]
Found heuristic solution: objective 414
Presolve removed 10 rows and 7 columns
Presolve time: 0.00s
Presolved: 11 rows, 34 columns, 67 nonzeros
Variable types: 0 continuous, 34 integer (34 binary)

Root relaxation: objective 2.930000e+02, 12 iterations, 0.00 seconds

    Nodes    |    Current Node    |     Objective Bounds      |     Work
 Expl Unexpl |  Obj  Depth IntInf | Incumbent    BestBd   Gap | It/Node Time

*    0     0               0     293.0000000  293.00000  0.00%     -    0s

Explored 0 nodes (12 simplex iterations) in 0.00 seconds
Thread count was 8 (of 8 available processors)

Optimal solution found (tolerance 1.00e-04)
Best objective 2.930000000000e+02, best bound 2.930000000000e+02, gap 0.0%
